Cost: 353
0-4-30-2-62-28-61-21-47-5-37-60-70-20-15-57-27-52-34-0
0-26-12-39-72-58-38-65-11-53-7-8-46-67-0
0-6-33-63-43-42-41-56-23-49-16-3-51-17-0
Cost: 353
0-26-12-40-39-72-58-38-65-11-53-7-8-46-67-0
0-17-51-3-16-49-23-56-41-43-63-33-6-0
0-34-52-27-57-15-20-70-60-37-5-47-21-61-28-62-2-30-4-0
Cost: 353
0-17-51-3-16-49-23-56-41-42-43-63-33-6-0
0-67-46-8-7-53-11-65-38-58-72-39-12-26-0
0-34-52-27-57-15-20-70-60-37-5-47-21-61-28-62-2-30-4-0
Cost: 353
0-26-12-39-72-58-38-65-11-53-7-8-46-67-0
0-4-30-2-62-28-61-21-47-5-37-60-70-20-15-57-27-52-34-0
0-6-33-63-43-42-41-56-23-49-16-3-51-17-0
Cost: 353
0-34-52-27-57-15-20-70-60-37-5-47-21-61-28-62-2-30-4-0
0-17-51-3-16-49-23-56-41-43-63-33-6-0
0-67-46-8-7-53-11-65-38-58-72-39-40-12-26-0
Cost: 353
0-17-51-3-16-49-23-56-41-43-63-33-6-0
0-34-52-27-57-15-20-70-60-37-5-47-21-61-28-62-2-30-4-0
0-67-46-8-7-53-11-65-38-58-72-39-40-12-26-0
Cost: 353
0-67-46-8-7-53-11-65-38-58-72-39-40-12-26-0
0-17-51-3-16-49-23-56-41-43-63-33-6-0
0-4-30-2-62-28-61-21-47-5-37-60-70-20-15-57-27-52-34-0
Cost: 353
0-17-51-3-16-49-23-56-41-42-43-63-33-6-0
0-34-52-27-57-15-20-70-60-37-5-47-21-61-28-62-2-30-4-0
0-26-12-39-72-58-38-65-11-53-7-8-46-67-0
Cost: 353
0-34-52-27-57-15-20-70-60-37-5-47-21-61-28-62-2-30-4-0
0-26-12-40-39-72-58-38-65-11-53-7-8-46-67-0
0-6-33-63-43-41-56-23-49-16-3-51-17-0
Cost: 353
0-4-30-2-62-28-61-21-47-5-37-60-70-20-15-57-27-52-34-0
0-17-51-3-16-49-23-56-41-43-63-33-6-0
0-67-46-8-7-53-11-65-38-58-72-39-40-12-26-0
Cost: 353
0-67-46-8-7-53-11-65-38-58-72-39-40-12-26-0
0-4-30-2-62-28-61-21-47-5-37-60-70-20-15-57-27-52-34-0
0-17-51-3-16-49-23-56-41-43-63-33-6-0
Cost: 353
0-17-51-3-16-49-23-56-41-43-63-33-6-0
0-4-30-2-62-28-61-21-47-5-37-60-70-20-15-57-27-52-34-0
0-26-12-40-39-72-58-38-65-11-53-7-8-46-67-0
Cost: 353
0-17-51-3-16-49-23-56-41-43-63-33-6-0
0-26-12-40-39-72-58-38-65-11-53-7-8-46-67-0
0-34-52-27-57-15-20-70-60-37-5-47-21-61-28-62-2-30-4-0
Cost: 353
0-26-12-40-39-72-58-38-65-11-53-7-8-46-67-0
0-4-30-2-62-28-61-21-47-5-37-60-70-20-15-57-27-52-34-0
0-17-51-3-16-49-23-56-41-43-63-33-6-0
Cost: 353
0-26-12-40-39-72-58-38-65-11-53-7-8-46-67-0
0-34-52-27-57-15-20-70-60-37-5-47-21-61-28-62-2-30-4-0
0-17-51-3-16-49-23-56-41-43-63-33-6-0
Cost: 353
0-34-52-27-57-15-20-70-60-37-5-47-21-61-28-62-2-30-4-0
0-67-46-8-7-53-11-65-38-58-72-39-40-12-26-0
0-17-51-3-16-49-23-56-41-43-63-33-6-0
Cost: 353
0-26-12-40-39-72-58-38-65-11-53-7-8-46-67-0
0-4-30-2-62-28-61-21-47-5-37-60-70-20-15-57-27-52-34-0
0-17-51-3-16-49-23-56-41-43-63-33-6-0
Cost: 353
0-17-51-3-16-49-23-56-41-43-63-33-6-0
0-26-12-40-39-72-58-38-65-11-53-7-8-46-67-0
0-4-30-2-62-28-61-21-47-5-37-60-70-20-15-57-27-52-34-0
Cost: 353
0-6-33-63-43-41-56-23-49-16-3-51-17-0
0-4-30-2-62-28-61-21-47-5-37-60-70-20-15-57-27-52-34-0
0-67-46-8-7-53-11-65-38-58-72-39-40-12-26-0
Cost: 353
0-67-46-8-7-53-11-65-38-58-72-39-12-26-0
0-17-51-3-16-49-23-56-41-42-43-63-33-6-0
0-4-30-2-62-28-61-21-47-5-37-60-70-20-15-57-27-52-34-0
Cost: 353
0-67-46-8-7-53-11-65-38-58-72-39-12-26-0
0-17-51-3-16-49-23-56-41-42-43-63-33-6-0
0-4-30-2-62-28-61-21-47-5-37-60-70-20-15-57-27-52-34-0
Cost: 353
0-4-30-2-62-28-61-21-47-5-37-60-70-20-15-57-27-52-34-0
0-26-12-40-39-72-58-38-65-11-53-7-8-46-67-0
0-17-51-3-16-49-23-56-41-43-63-33-6-0
Cost: 353
0-4-30-2-62-28-61-21-47-5-37-60-70-20-15-57-27-52-34-0
0-26-12-40-39-72-58-38-65-11-53-7-8-46-67-0
0-17-51-3-16-49-23-56-41-43-63-33-6-0
Cost: 353
0-17-51-3-16-49-23-56-41-42-43-63-33-6-0
0-34-52-27-57-15-20-70-60-37-5-47-21-61-28-62-2-30-4-0
0-26-12-39-72-58-38-65-11-53-7-8-46-67-0
Cost: 353
0-4-30-2-62-28-61-21-47-5-37-60-70-20-15-57-27-52-34-0
0-26-12-40-39-72-58-38-65-11-53-7-8-46-67-0
0-17-51-3-16-49-23-56-41-43-63-33-6-0
Cost: 353
0-6-33-63-43-41-56-23-49-16-3-51-17-0
0-4-30-2-62-28-61-21-47-5-37-60-70-20-15-57-27-52-34-0
0-67-46-8-7-53-11-65-38-58-72-39-40-12-26-0
Cost: 353
0-67-46-8-7-53-11-65-38-58-72-39-12-26-0
0-17-51-3-16-49-23-56-41-42-43-63-33-6-0
0-4-30-2-62-28-61-21-47-5-37-60-70-20-15-57-27-52-34-0
Cost: 353
0-67-46-8-7-53-11-65-38-58-72-39-12-26-0
0-4-30-2-62-28-61-21-47-5-37-60-70-20-15-57-27-52-34-0
0-6-33-63-43-42-41-56-23-49-16-3-51-17-0
Cost: 353
0-67-46-8-7-53-11-65-38-58-72-39-40-12-26-0
0-6-33-63-43-41-56-23-49-16-3-51-17-0
0-34-52-27-57-15-20-70-60-37-5-47-21-61-28-62-2-30-4-0
Cost: 353
0-67-46-8-7-53-11-65-38-58-72-39-40-12-26-0
0-34-52-27-57-15-20-70-60-37-5-47-21-61-28-62-2-30-4-0
0-17-51-3-16-49-23-56-41-43-63-33-6-0
Cost: 353
0-67-46-8-7-53-11-65-38-58-72-39-40-12-26-0
0-6-33-63-43-41-56-23-49-16-3-51-17-0
0-34-52-27-57-15-20-70-60-37-5-47-21-61-28-62-2-30-4-0
Cost: 353
0-6-33-63-43-42-41-56-23-49-16-3-51-17-0
0-26-12-39-72-58-38-65-11-53-7-8-46-67-0
0-34-52-27-57-15-20-70-60-37-5-47-21-61-28-62-2-30-4-0
Cost: 353
0-17-51-3-16-49-23-56-41-43-63-33-6-0
0-4-30-2-62-28-61-21-47-5-37-60-70-20-15-57-27-52-34-0
0-26-12-40-39-72-58-38-65-11-53-7-8-46-67-0
Cost: 353
0-34-52-27-57-15-20-70-60-37-5-47-21-61-28-62-2-30-4-0
0-17-51-3-16-49-23-56-41-42-43-63-33-6-0
0-67-46-8-7-53-11-65-38-58-72-39-12-26-0
Cost: 353
0-67-46-8-7-53-11-65-38-58-72-39-40-12-26-0
0-17-51-3-16-49-23-56-41-43-63-33-6-0
0-34-52-27-57-15-20-70-60-37-5-47-21-61-28-62-2-30-4-0
Cost: 353
0-4-30-2-62-28-61-21-47-5-37-60-70-20-15-57-27-52-34-0
0-67-46-8-7-53-11-65-38-58-72-39-40-12-26-0
0-17-51-3-16-49-23-56-41-43-63-33-6-0
Cost: 353
0-34-52-27-57-15-20-70-60-37-5-47-21-61-28-62-2-30-4-0
0-17-51-3-16-49-23-56-41-43-63-33-6-0
0-26-12-40-39-72-58-38-65-11-53-7-8-46-67-0
